
  21    2
  10   10

   0   0   0  11 2 3 4 5 6 10 16 17 18 19 20 
   3   1   1   3 15 14 7 
   3   2   8   3 13 12 11 
   3   5   5   2 12 11 
   2   7   3   1 9 
   2   5   6   1 8 
   2   0   0   1 12 
   3   4   4   1 11 
   9   4   6   1 11 
   4   5   4   1 11 
   3   5   6   1 21
   3   7   5   1 21
   6   9   6   1 21
   4   7   0   1 21
   7   6   3   1 21
   2   5   3   1 21
   1   3   7   1 21
   1   0   6   1 21
   2   6   4   1 21
   5   4   8   1 21
   0   0   0   0 
